nApps = 215
nRes = 9
nActs = 438
nNetworks = 6

assignmentToResources = [1,1,1,1,1,2,3,2,3,2,3,1,2,1,2,3,1,2,3,2,3,3,1,2,2,2,2,3,3,1,1,3,3,3,3,2,2,3,1,3,1,2,3,1,2,2,1,2,2,2,2,2,2,2,2,3,2,3,2,2,2,3,1,1,2,1,3,1,1,1,3,2,3,1,1,2,3,1,1,1,2,2,3,3,1,1,1,1,1,1,1,1,1,2,1,1,2,2,1,2,4,4,4,4,4,4,4,4,5,5,6,6,5,5,5,5,6,6,6,6,5,5,5,6,6,6,5,4,5,5,5,5,6,4,4,5,6,6,5,5,5,5,6,6,6,4,5,5,5,5,5,5,5,6,6,6,4,4,6,6,6,6,6,6,6,5,5,5,5,5,6,6,4,4,6,6,5,6,6,6,4,4,4,5,5,5,5,5,5,5,4,4,5,5,5,5,5,5,5,5,5,5,5,5,5,5,5,5,5,5,6,5,6,4,4,4,5,4,4,4,4,4,4,6,4,4,4,4,5,5,6,4,4,4,4,4,5,6,6,6,4,4,4,4,4,4,4,5,7,6,8,5,9,5,9,6,8,4,9,4,9,5,7,4,8,4,8,5,7,6,8,5,9,4,9,6,7,4,9,6,7,4,8,4,9,4,9,6,8,5,9,8,8,8,9,8,8,8,9,7,9,7,7,9,7,7,7,7,8,8,8,7,9,7,7,8,7,9,8,9,9,7,7,7,8,9,7,7,8,9,9,7,7,7,8,7,8,7,7,7,7,7,7,9,8,8,7,9,9,8,7,7,8,8,7,7,7,9,9,7,9,8,7,9,8,8,7,7,7,7,8,8,8,9,7,9,7,9,9,7,7,8,9,7,9,7,9,9,7,7,7,9,7,7,7,9,9,7,7,7,7,7,7,8,8,9,8,9,8,9,9,9,8,9,8,9,8,8,9,7,9,8,8,9,9,8,8,9,8,7,8,9,8,8,8,8,8,9];

processingTimes = [112,144,104,136,136,56,152,128,96,168,136,136,128,168,112,112,88,152,48,160,136,144,128,136,136,144,136,104,64,80,104,136,136,112,112,112,144,56,72,120,120,112,128,56,96,64,48,144,64,136,160,128,56,56,136,152,168,80,128,104,128,96,48,88,136,56,72,64,104,112,136,136,136,152,136,120,104,112,128,136,136,104,128,128,104,80,128,136,64,96,112,104,112,96,96,128,152,144,136,104,23,3,500,4,3,4,500,4,4,4,500,3,3,3,3,1000,4,4,500,4,4,4,4,4,3,500,3,3,3,500,4,4,8,4,500,3,500,3,3,4,3,3,4,3,3,100,4,4,4,1000,1000,4,3,4,4,4,4,3,500,500,3,4,4,3,200,4,3,3,3,4,4,4,4,4,13,4,4,500,500,4,500,3,500,3,3,3,4,4,4,4,8,8,3,3,4,4,4,1000,1000,4,4,4,4,4,4,4,4,4,4,4,500,4,5,4,3,3,3,4,4,3,500,4,4,3,5,8,3,500,1000,4,13,500,500,4,13,8,3,3,4,500,4,4,500,3,3,3,3,3,3,4,4,4,4,4,4,4,4,4,4,5,5,500,500,500,500,500,500,3,3,5,5,3,3,3,3,4,4,4,4,4,4,5,5,4,4,4,4,13,13,8,8,23,3,500,4,3,4,500,4,4,4,500,3,3,3,3,1000,4,4,500,4,4,4,4,4,3,500,3,3,3,500,4,4,8,4,500,3,500,3,3,4,3,3,4,3,3,100,4,4,4,1000,1000,4,3,4,4,4,4,3,500,500,3,4,4,3,200,4,3,3,3,4,4,4,4,4,13,4,4,500,500,4,500,3,500,3,3,3,4,4,4,4,8,8,3,3,4,4,4,1000,1000,4,4,4,4,4,4,4,4,4,4,4,500,4,5,4,3,3,3,4,4,3,500,4,4,3,5,8,3,500,1000,4,13,500,500,4,13,8,3,3,4,500,4,4,500,3,3,3,3];

periods = [100000,10000,100000,100000,10000,10000,20000,20000,20000,20000,20000,10000,100000,10000,100000,100000,20000,100000,20000,100000,100000,100000,1000,10000,10000,10000,20000,100000,20000,100000,10000,100000,100000,20000,2000,10000,10000,20000,100000,10000,100000,100000,100000,5000,10000,20000,1000,20000,20000,10000,100000,10000,10000,20000,5000,1000,50000,20000,100000,10000,1000,10000,20000,100000,10000,100000,20000,100000,20000,20000,10000,10000,10000,100000,10000,10000,1000,20000,100000,20000,20000,100000,10000,10000,100000,100000,20000,100000,20000,100000,100000,10000,20000,20000,20000,100000,10000,10000,20000,20000,100000,100000,10000,10000,100000,100000,100000,10000,10000,10000,20000,20000,20000,20000,20000,20000,20000,20000,20000,20000,20000,20000,20000,20000,20000,20000,100000,10000,100000,100000,100000,100000,100000,20000,20000,100000,20000,20000,100000,100000,100000,100000,100000,100000,100000,1000,10000,10000,10000,10000,10000,10000,20000,100000,20000,20000,100000,10000,100000,100000,20000,20000,20000,20000,2000,10000,10000,10000,10000,10000,20000,20000,100000,100000,10000,10000,100000,100000,100000,100000,5000,5000,5000,10000,20000,20000,20000,20000,20000,20000,1000,1000,20000,20000,20000,20000,20000,20000,20000,10000,100000,100000,100000,10000,10000,20000,20000,20000,50000,50000,20000,100000,10000,20000,100000,100000,10000,100000,100000,20000,20000,20000,20000,10000,100000,100000,10000,10000,10000,10000,1000,20000,20000,20000,100000,20000,20000,10000,10000,10000,100000,100000,20000,20000,20000,20000,100000,10000,10000,10000,10000,10000,10000,10000,10000,10000,10000,10000,10000,10000,10000,100000,100000,100000,100000,100000,100000,10000,10000,10000,10000,10000,10000,20000,20000,20000,20000,20000,20000,20000,20000,20000,20000,100000,100000,1000,1000,10000,10000,10000,10000,100000,100000,10000,10000,100000,100000,100000,10000,10000,10000,20000,20000,20000,20000,20000,20000,20000,20000,20000,20000,20000,20000,20000,20000,20000,20000,100000,10000,100000,100000,100000,100000,100000,20000,20000,100000,20000,20000,100000,100000,100000,100000,100000,100000,100000,1000,10000,10000,10000,10000,10000,10000,20000,100000,20000,20000,100000,10000,100000,100000,20000,20000,20000,20000,2000,10000,10000,10000,10000,10000,20000,20000,100000,100000,10000,10000,100000,100000,100000,100000,5000,5000,5000,10000,20000,20000,20000,20000,20000,20000,1000,1000,20000,20000,20000,20000,20000,20000,20000,10000,100000,100000,100000,10000,10000,20000,20000,20000,50000,50000,20000,100000,10000,20000,100000,100000,10000,100000,100000,20000,20000,20000,20000,10000,100000,100000,10000,10000,10000,10000,1000,20000,20000,20000,100000,20000,20000,10000,10000,10000,100000,100000,20000,20000,20000,20000,100000];

assignmentToClusters = [1,2,3,4,5,2,6,7,8,9,10,11,4,12,13,14,15,16,17,18,19,20,21,22,23,24,25,26,27,28,29,30,31,32,33,34,12,15,35,36,37,3,20,38,2,39,40,41,42,22,43,2,22,44,45,46,47,15,48,36,49,12,50,51,24,52,15,53,54,55,56,22,2,57,2,12,21,58,20,59,25,3,2,2,60,3,61,62,15,63,64,65,66,15,15,67,24,56,68,25,69,70,71,72,73,74,75,76,77,78,79,80,81,82,83,84,85,86,87,88,89,90,91,92,93,94,95,96,97,98,99,100,101,102,103,104,105,106,107,108,109,110,111,112,113,114,115,116,117,118,119,120,121,122,123,124,125,126,127,128,129,130,131,132,133,134,135,136,137,138,139,140,141,142,143,144,145,146,147,148,149,150,151,152,153,154,155,156,157,158,159,160,161,162,163,164,165,166,167,168,169,170,171,172,173,174,175,176,177,178,179,180,181,182,183,184,185,186,187,188,189,190,191,192,193,194,195,196,197,198,199,200,201,202,203,204,205,206,207,208,209,210,211,212,213,214,215,2,2,2,2,2,2,2,2,2,2,2,2,2,2,3,3,3,3,4,4,12,12,12,12,12,12,15,15,15,15,15,15,15,15,15,15,20,20,21,21,36,36,56,56,69,70,71,72,73,74,75,76,77,78,79,80,81,82,83,84,85,86,87,88,89,90,91,92,93,94,95,96,97,98,99,100,101,102,103,104,105,106,107,108,109,110,111,112,113,114,115,116,117,118,119,120,121,122,123,124,125,126,127,128,129,130,131,132,133,134,135,136,137,138,139,140,141,142,143,144,145,146,147,148,149,150,151,152,153,154,155,156,157,158,159,160,161,162,163,164,165,166,167,168,169,170,171,172,173,174,175,176,177,178,179,180,181,182,183,184,185,186,187,188,189,190,191,192,193,194,195,196,197,198,199,200,201,202,203,204,205,206,207,208,209,210,211,212,213,214,215];

precedenceAdjList = [[],[248],[262],[],[],[250],[],[],[],[],[],[],[266],[268],[],[],[],[],[],[],[],[284],[],[],[],[64],[99],[],[],[],[],[],[],[],[],[],[270],[66],[],[],[],[],[21],[],[],[],[],[],[],[52],[],[256],[23],[],[],[],[],[274],[],[288],[],[272],[],[],[],[],[278],[],[],[],[290],[49],[258],[],[],[],[286],[],[],[],[],[264],[260],[252,254],[],[2],[],[],[280],[],[],[],[],[282],[276],[],[25],[],[],[80],[],[],[],[],[],[],[],[],[],[],[],[],[],[],[],[],[],[],[],[],[],[],[],[],[],[],[],[],[],[],[],[],[],[],[],[],[],[],[],[],[],[],[],[],[],[],[],[],[],[],[],[],[],[],[],[],[],[],[],[],[],[],[],[],[],[],[],[],[],[],[],[],[],[],[],[],[],[],[],[],[],[],[],[],[],[],[],[],[],[],[],[],[],[],[],[],[],[],[],[],[],[],[],[],[],[],[],[],[],[],[],[],[],[],[],[],[],[],[],[],[],[],[],[],[],[],[],[],[],[],[],[],[],[],[],[],[],[],[],[],[],[],[],[],[],[],[],[5],[247],[83],[249],[51],[251],[44],[253],[72],[255],[74],[257],[1],[259],[41],[261],[85],[263],[3],[265],[36],[267],[61],[269],[75],[271],[16],[273],[57],[275],[94],[277],[37],[279],[88],[281],[78],[283],[22],[285],[39],[287],[97],[289],[100],[101],[102],[103],[104],[105],[106],[107],[108],[109],[110],[111],[112],[113],[114],[115],[116],[117],[118],[119],[120],[121],[122],[123],[124],[125],[126],[127],[128],[129],[130],[131],[132],[133],[134],[135],[136],[137],[138],[139],[140],[141],[142],[143],[144],[145],[146],[147],[148],[149],[150],[151],[152],[153],[154],[155],[156],[157],[158],[159],[160],[161],[162],[163],[164],[165],[166],[167],[168],[169],[170],[171],[172],[173],[174],[175],[176],[177],[178],[179],[180],[181],[182],[183],[184],[185],[186],[187],[188],[189],[190],[191],[192],[193],[194],[195],[196],[197],[198],[199],[200],[201],[202],[203],[204],[205],[206],[207],[208],[209],[210],[211],[212],[213],[214],[215],[216],[217],[218],[219],[220],[221],[222],[223],[224],[225],[226],[227],[228],[229],[230],[231],[232],[233],[234],[235],[236],[237],[238],[239],[240],[241],[242],[243],[244],[245],[246]];